35575
1 1 1 1 1 1 1 1 1 1 0 1 1 0 1 1 1 1 1 1 1 0 1 1 1 1 1 1 1 0
23 20 1 8 9 3 8 3 6 5 9 6 8 12 27 2 7 16 16 5 16 16 4 19 17 8 7 0 3 16 4 5 7 14 2 16 7 24 24 0 1 12 26 1 3 22 12 5 22 19 17 14 24 6 17 4 2 5 14 15 17 27 22 25 15 24 5 14 24 6 18 3 2 8 22 15 22 17 3 14 5 25 11 23 20 5 15 2 6 15 9 7 0 8 28 17 20 8 11 3 6 9 27 11 27 7 1 23 11 9 25 1 22 1 28 11 20 8 11 2 25 26 2 22 28 15 16 20 5 2 23 25 12 27 16 26 5 23 20 1 2 17 27 11 11 19 11 8 18 18 8 11 1 22 2 25 0 24 12 17 23 8 19 17 26 0 9 5 19 23 2 19 24 20 23 7 2 14 27 4 26 4 28 22 28 15 27 1 28 20 16 8 26 20 8 22 4 1 27 8